\ Generated by MPModelProtoExporter
\   Name             : SCIP
\   Format           : Free
\   Constraints      : 60
\   Variables        : 510
\     Binary         : 510
\     Integer        : 0
\     Continuous     : 0
Minimize
 Obj: +260 x[0,0] +239 x[1,0] +418 x[2,0] +557 x[3,0] +346 x[4,0] +161 x[5,0] +288 x[6,0] +568 x[7,0] +379 x[8,0] +392 x[9,0] +672 x[10,0] +268 x[11,0] +122 x[12,0] +295 x[13,0] +344 x[14,0] +143 x[15,0] +393 x[16,0] +29 x[17,0] +656 x[18,0] +654 x[19,0] +235 x[20,0] +329 x[21,0] +640 x[22,0] +517 x[23,0] +329 x[24,0] +524 x[25,0] +318 x[26,0] +516 x[27,0] +79 x[28,0] +414 x[29,0] +458 x[30,0] +758 x[31,0] +28 x[32,0] +167 x[33,0] +504 x[34,0] +502 x[35,0] +475 x[36,0] +226 x[37,0] +94 x[38,0] +422 x[39,0] +303 x[40,0] +139 x[41,0] +362 x[42,0] +519 x[43,0] +494 x[44,0] +88 x[45,0] +468 x[46,0] +72 x[47,0] +370 x[48,0] +68 x[49,0] +580 x[0,1] +484 x[1,1] +34 x[2,1] +386 x[3,1] +180 x[4,1] +522 x[5,1] +338 x[6,1] +636 x[7,1] +523 x[8,1] +28 x[9,1] +646 x[10,1] +652 x[11,1] +319 x[12,1] +423 x[13,1] +712 x[14,1] +242 x[15,1] +486 x[16,1] +401 x[17,1] +551 x[18,1] +812 x[19,1] +155 x[20,1] +585 x[21,1] +482 x[22,1] +604 x[23,1] +200 x[24,1] +284 x[25,1] +80 x[26,1] +195 x[27,1] +426 x[28,1] +107 x[29,1] +387 x[30,1] +516 x[31,1] +374 x[32,1] +234 x[33,1] +495 x[34,1] +584 x[35,1] +612 x[36,1] +239 x[37,1] +392 x[38,1] +507 x[39,1] +145 x[40,1] +459 x[41,1] +104 x[42,1] +286 x[43,1] +701 x[44,1] +463 x[45,1] +467 x[46,1] +349 x[47,1] +574 x[48,1] +344 x[49,1] +335 x[0,2] +212 x[1,2] +369 x[2,2] +258 x[3,2] +455 x[4,2] +348 x[5,2] +33 x[6,2] +302 x[7,2] +181 x[8,2] +329 x[9,2] +363 x[10,2] +504 x[11,2] +376 x[12,2] +99 x[13,2] +502 x[14,2] +262 x[15,2] +140 x[16,2] +310 x[17,2] +335 x[18,2] +466 x[19,2] +249 x[20,2] +285 x[21,2] +328 x[22,2] +263 x[23,2] +149 x[24,2] +274 x[25,2] +345 x[26,2] +337 x[27,2] +288 x[28,2] +284 x[29,2] +140 x[30,2] +467 x[31,2] +338 x[32,2] +215 x[33,2] +192 x[34,2] +243 x[35,2] +267 x[36,2] +403 x[37,2] +244 x[38,2] +162 x[39,2] +202 x[40,2] +270 x[41,2] +411 x[42,2] +267 x[43,2] +364 x[44,2] +400 x[45,2] +156 x[46,2] +356 x[47,2] +248 x[48,2] +348 x[49,2] +415 x[0,3] +347 x[1,3] +240 x[2,3] +474 x[3,3] +179 x[4,3] +336 x[5,3] +281 x[6,3] +603 x[7,3] +442 x[8,3] +219 x[9,3] +666 x[10,3] +451 x[11,3] +117 x[12,3] +338 x[13,3] +525 x[14,3] +59 x[15,3] +428 x[16,3] +205 x[17,3] +611 x[18,3] +738 x[19,3] +84 x[20,3] +451 x[21,3] +569 x[22,3] +559 x[23,3] +229 x[24,3] +409 x[25,3] +135 x[26,3] +367 x[27,3] +241 x[28,3] +261 x[29,3] +414 x[30,3] +653 x[31,3] +170 x[32,3] +94 x[33,3] +496 x[34,3] +540 x[35,3] +541 x[36,3] +97 x[37,3] +218 x[38,3] +456 x[39,3] +174 x[40,3] +286 x[41,3] +180 x[42,3] +406 x[43,3] +598 x[44,3] +258 x[45,3] +461 x[46,3] +142 x[47,3] +466 x[48,3] +138 x[49,3] +363 x[0,4] +276 x[1,4] +603 x[2,4] +349 x[3,4] +694 x[4,4] +441 x[5,4] +258 x[6,4] +73 x[7,4] +120 x[8,4] +564 x[9,4] +218 x[10,4] +576 x[11,4] +582 x[12,4] +204 x[13,4] +519 x[14,4] +484 x[15,4] +108 x[16,4] +474 x[17,4] +294 x[18,4] +237 x[19,4] +487 x[20,4] +256 x[21,4] +354 x[22,4] +23 x[23,4] +383 x[24,4] +432 x[25,4] +586 x[26,4] +532 x[27,4] +432 x[28,4] +508 x[29,4] +235 x[30,4] +524 x[31,4] +519 x[32,4] +442 x[33,4] +138 x[34,4] +9 x[35,4] +72 x[36,4] +631 x[37,4] +402 x[38,4] +80 x[39,4] +441 x[40,4] +385 x[41,4] +651 x[42,4] +424 x[43,4] +200 x[44,4] +552 x[45,4] +141 x[46,4] +550 x[47,4] +179 x[48,4] +543 x[49,4] +624 x[0,5] +507 x[1,5] +173 x[2,5] +228 x[3,5] +365 x[4,5] +598 x[5,5] +323 x[6,5] +548 x[7,5] +489 x[8,5] +157 x[9,5] +516 x[10,5] +746 x[11,5] +464 x[12,5] +410 x[13,5] +779 x[14,5] +357 x[15,5] +436 x[16,5] +501 x[17,5] +399 x[18,5] +748 x[19,5] +268 x[20,5] +594 x[21,5] +317 x[22,5] +529 x[23,5] +184 x[24,5] +113 x[25,5] +255 x[26,5] +25 x[27,5] +509 x[28,5] +88 x[29,5] +281 x[30,5] +332 x[31,5] +492 x[32,5] +326 x[33,5] +394 x[34,5] +510 x[35,5] +559 x[36,5] +408 x[37,5] +466 x[38,5] +449 x[39,5] +190 x[40,5] +522 x[41,5] +288 x[42,5] +118 x[43,5] +671 x[44,5] +580 x[45,5] +375 x[46,5] +480 x[47,5] +560 x[48,5] +474 x[49,5] +677 x[0,6] +554 x[1,6] +409 x[2,6] +90 x[3,6] +593 x[4,6] +691 x[5,6] +374 x[6,6] +436 x[7,6] +467 x[8,6] +387 x[9,6] +340 x[10,6] +847 x[11,6] +643 x[12,6] +434 x[13,6] +846 x[14,6] +523 x[15,6] +405 x[16,6] +632 x[17,6] +200 x[18,6] +648 x[19,6] +451 x[20,6] +610 x[21,6] +104 x[22,6] +440 x[23,6] +311 x[24,6] +132 x[25,6] +476 x[26,6] +237 x[27,6] +622 x[28,6] +309 x[29,6] +222 x[30,6] +124 x[31,6] +642 x[32,6] +479 x[33,6] +293 x[34,6] +425 x[35,6] +498 x[36,6] +614 x[37,6] +576 x[38,6] +401 x[39,6] +361 x[40,6] +612 x[41,6] +519 x[42,6] +132 x[43,6] +626 x[44,6] +720 x[45,6] +297 x[46,6] +644 x[47,6] +551 x[48,6] +637 x[49,6] +382 x[0,7] +354 x[1,7] +782 x[2,7] +540 x[3,7] +850 x[4,7] +490 x[5,7] +422 x[6,7] +186 x[7,7] +240 x[8,7] +742 x[9,7] +340 x[10,7] +587 x[11,7] +700 x[12,7] +345 x[13,7] +493 x[14,7] +622 x[15,7] +274 x[16,7] +567 x[17,7] +458 x[18,7] +61 x[19,7] +646 x[20,7] +276 x[21,7] +533 x[22,7] +180 x[23,7] +562 x[24,7] +625 x[25,7] +751 x[26,7] +724 x[27,7] +518 x[28,7] +693 x[29,7] +428 x[30,7] +702 x[31,7] +620 x[32,7] +586 x[33,7] +328 x[34,7] +197 x[35,7] +147 x[36,7] +770 x[37,7] +501 x[38,7] +256 x[39,7] +614 x[40,7] +460 x[41,7] +817 x[42,7] +617 x[43,7] +113 x[44,7] +627 x[45,7] +334 x[46,7] +659 x[47,7] +223 x[48,7] +652 x[49,7] +101 x[0,8] +162 x[1,8] +566 x[2,8] +607 x[3,8] +519 x[4,8] +14 x[5,8] +320 x[6,8] +505 x[7,8] +316 x[8,8] +535 x[9,8] +642 x[10,8] +155 x[11,8] +295 x[12,8] +276 x[13,8] +180 x[14,8] +296 x[15,8] +356 x[16,8] +148 x[17,8] +664 x[18,8] +538 x[19,8] +378 x[20,8] +203 x[21,8] +673 x[22,8] +453 x[23,8] +423 x[24,8] +607 x[25,8] +477 x[26,8] +630 x[27,8] +108 x[28,8] +539 x[29,8] +485 x[30,8] +816 x[31,8] +200 x[32,8] +299 x[33,8] +492 x[34,8] +443 x[35,8] +392 x[36,8] +401 x[37,8] +142 x[38,8] +380 x[39,8] +422 x[40,8] +83 x[41,8] +528 x[42,8] +600 x[43,8] +368 x[44,8] +161 x[45,8] +460 x[46,8] +244 x[47,8] +269 x[48,8] +242 x[49,8] +567 x[0,9] +462 x[1,9] +603 x[2,9] +240 x[3,9] +746 x[4,9] +628 x[5,9] +357 x[6,9] +183 x[7,9] +317 x[8,9] +569 x[9,9] +54 x[10,9] +774 x[11,9] +701 x[12,9] +355 x[13,9] +730 x[14,9] +585 x[15,9] +268 x[16,9] +626 x[17,9] +96 x[18,9] +381 x[19,9] +553 x[20,9] +467 x[21,9] +187 x[22,9] +213 x[23,9] +412 x[24,9] +354 x[25,9] +626 x[26,9] +474 x[27,9] +595 x[28,9] +496 x[29,9] +213 x[30,9] +345 x[31,9] +660 x[32,9] +537 x[33,9] +137 x[34,9] +209 x[35,9] +289 x[36,9] +718 x[37,9] +555 x[38,9] +245 x[39,9] +478 x[40,9] +559 x[41,9] +686 x[42,9] +347 x[43,9] +411 x[44,9] +713 x[45,9] +172 x[46,9] +681 x[47,9] +392 x[48,9] +673 x[49,9] +366 y[0] +314 y[1] +504 y[2] +504 y[3] +580 y[4] +415 y[5] +456 y[6] +549 y[7] +310 y[8] +316 y[9] 
Subject to
 auto_c_000000000: +1 x[0,0] +1 x[0,1] +1 x[0,2] +1 x[0,3] +1 x[0,4] +1 x[0,5] +1 x[0,6] +1 x[0,7] +1 x[0,8] +1 x[0,9]  = 1
 auto_c_000000001: +1 x[1,0] +1 x[1,1] +1 x[1,2] +1 x[1,3] +1 x[1,4] +1 x[1,5] +1 x[1,6] +1 x[1,7] +1 x[1,8] +1 x[1,9]  = 1
 auto_c_000000002: +1 x[2,0] +1 x[2,1] +1 x[2,2] +1 x[2,3] +1 x[2,4] +1 x[2,5] +1 x[2,6] +1 x[2,7] +1 x[2,8] +1 x[2,9]  = 1
 auto_c_000000003: +1 x[3,0] +1 x[3,1] +1 x[3,2] +1 x[3,3] +1 x[3,4] +1 x[3,5] +1 x[3,6] +1 x[3,7] +1 x[3,8] +1 x[3,9]  = 1
 auto_c_000000004: +1 x[4,0] +1 x[4,1] +1 x[4,2] +1 x[4,3] +1 x[4,4] +1 x[4,5] +1 x[4,6] +1 x[4,7] +1 x[4,8] +1 x[4,9]  = 1
 auto_c_000000005: +1 x[5,0] +1 x[5,1] +1 x[5,2] +1 x[5,3] +1 x[5,4] +1 x[5,5] +1 x[5,6] +1 x[5,7] +1 x[5,8] +1 x[5,9]  = 1
 auto_c_000000006: +1 x[6,0] +1 x[6,1] +1 x[6,2] +1 x[6,3] +1 x[6,4] +1 x[6,5] +1 x[6,6] +1 x[6,7] +1 x[6,8] +1 x[6,9]  = 1
 auto_c_000000007: +1 x[7,0] +1 x[7,1] +1 x[7,2] +1 x[7,3] +1 x[7,4] +1 x[7,5] +1 x[7,6] +1 x[7,7] +1 x[7,8] +1 x[7,9]  = 1
 auto_c_000000008: +1 x[8,0] +1 x[8,1] +1 x[8,2] +1 x[8,3] +1 x[8,4] +1 x[8,5] +1 x[8,6] +1 x[8,7] +1 x[8,8] +1 x[8,9]  = 1
 auto_c_000000009: +1 x[9,0] +1 x[9,1] +1 x[9,2] +1 x[9,3] +1 x[9,4] +1 x[9,5] +1 x[9,6] +1 x[9,7] +1 x[9,8] +1 x[9,9]  = 1
 auto_c_000000010: +1 x[10,0] +1 x[10,1] +1 x[10,2] +1 x[10,3] +1 x[10,4] +1 x[10,5] +1 x[10,6] +1 x[10,7] +1 x[10,8] +1 x[10,9]  = 1
 auto_c_000000011: +1 x[11,0] +1 x[11,1] +1 x[11,2] +1 x[11,3] +1 x[11,4] +1 x[11,5] +1 x[11,6] +1 x[11,7] +1 x[11,8] +1 x[11,9]  = 1
 auto_c_000000012: +1 x[12,0] +1 x[12,1] +1 x[12,2] +1 x[12,3] +1 x[12,4] +1 x[12,5] +1 x[12,6] +1 x[12,7] +1 x[12,8] +1 x[12,9]  = 1
 auto_c_000000013: +1 x[13,0] +1 x[13,1] +1 x[13,2] +1 x[13,3] +1 x[13,4] +1 x[13,5] +1 x[13,6] +1 x[13,7] +1 x[13,8] +1 x[13,9]  = 1
 auto_c_000000014: +1 x[14,0] +1 x[14,1] +1 x[14,2] +1 x[14,3] +1 x[14,4] +1 x[14,5] +1 x[14,6] +1 x[14,7] +1 x[14,8] +1 x[14,9]  = 1
 auto_c_000000015: +1 x[15,0] +1 x[15,1] +1 x[15,2] +1 x[15,3] +1 x[15,4] +1 x[15,5] +1 x[15,6] +1 x[15,7] +1 x[15,8] +1 x[15,9]  = 1
 auto_c_000000016: +1 x[16,0] +1 x[16,1] +1 x[16,2] +1 x[16,3] +1 x[16,4] +1 x[16,5] +1 x[16,6] +1 x[16,7] +1 x[16,8] +1 x[16,9]  = 1
 auto_c_000000017: +1 x[17,0] +1 x[17,1] +1 x[17,2] +1 x[17,3] +1 x[17,4] +1 x[17,5] +1 x[17,6] +1 x[17,7] +1 x[17,8] +1 x[17,9]  = 1
 auto_c_000000018: +1 x[18,0] +1 x[18,1] +1 x[18,2] +1 x[18,3] +1 x[18,4] +1 x[18,5] +1 x[18,6] +1 x[18,7] +1 x[18,8] +1 x[18,9]  = 1
 auto_c_000000019: +1 x[19,0] +1 x[19,1] +1 x[19,2] +1 x[19,3] +1 x[19,4] +1 x[19,5] +1 x[19,6] +1 x[19,7] +1 x[19,8] +1 x[19,9]  = 1
 auto_c_000000020: +1 x[20,0] +1 x[20,1] +1 x[20,2] +1 x[20,3] +1 x[20,4] +1 x[20,5] +1 x[20,6] +1 x[20,7] +1 x[20,8] +1 x[20,9]  = 1
 auto_c_000000021: +1 x[21,0] +1 x[21,1] +1 x[21,2] +1 x[21,3] +1 x[21,4] +1 x[21,5] +1 x[21,6] +1 x[21,7] +1 x[21,8] +1 x[21,9]  = 1
 auto_c_000000022: +1 x[22,0] +1 x[22,1] +1 x[22,2] +1 x[22,3] +1 x[22,4] +1 x[22,5] +1 x[22,6] +1 x[22,7] +1 x[22,8] +1 x[22,9]  = 1
 auto_c_000000023: +1 x[23,0] +1 x[23,1] +1 x[23,2] +1 x[23,3] +1 x[23,4] +1 x[23,5] +1 x[23,6] +1 x[23,7] +1 x[23,8] +1 x[23,9]  = 1
 auto_c_000000024: +1 x[24,0] +1 x[24,1] +1 x[24,2] +1 x[24,3] +1 x[24,4] +1 x[24,5] +1 x[24,6] +1 x[24,7] +1 x[24,8] +1 x[24,9]  = 1
 auto_c_000000025: +1 x[25,0] +1 x[25,1] +1 x[25,2] +1 x[25,3] +1 x[25,4] +1 x[25,5] +1 x[25,6] +1 x[25,7] +1 x[25,8] +1 x[25,9]  = 1
 auto_c_000000026: +1 x[26,0] +1 x[26,1] +1 x[26,2] +1 x[26,3] +1 x[26,4] +1 x[26,5] +1 x[26,6] +1 x[26,7] +1 x[26,8] +1 x[26,9]  = 1
 auto_c_000000027: +1 x[27,0] +1 x[27,1] +1 x[27,2] +1 x[27,3] +1 x[27,4] +1 x[27,5] +1 x[27,6] +1 x[27,7] +1 x[27,8] +1 x[27,9]  = 1
 auto_c_000000028: +1 x[28,0] +1 x[28,1] +1 x[28,2] +1 x[28,3] +1 x[28,4] +1 x[28,5] +1 x[28,6] +1 x[28,7] +1 x[28,8] +1 x[28,9]  = 1
 auto_c_000000029: +1 x[29,0] +1 x[29,1] +1 x[29,2] +1 x[29,3] +1 x[29,4] +1 x[29,5] +1 x[29,6] +1 x[29,7] +1 x[29,8] +1 x[29,9]  = 1
 auto_c_000000030: +1 x[30,0] +1 x[30,1] +1 x[30,2] +1 x[30,3] +1 x[30,4] +1 x[30,5] +1 x[30,6] +1 x[30,7] +1 x[30,8] +1 x[30,9]  = 1
 auto_c_000000031: +1 x[31,0] +1 x[31,1] +1 x[31,2] +1 x[31,3] +1 x[31,4] +1 x[31,5] +1 x[31,6] +1 x[31,7] +1 x[31,8] +1 x[31,9]  = 1
 auto_c_000000032: +1 x[32,0] +1 x[32,1] +1 x[32,2] +1 x[32,3] +1 x[32,4] +1 x[32,5] +1 x[32,6] +1 x[32,7] +1 x[32,8] +1 x[32,9]  = 1
 auto_c_000000033: +1 x[33,0] +1 x[33,1] +1 x[33,2] +1 x[33,3] +1 x[33,4] +1 x[33,5] +1 x[33,6] +1 x[33,7] +1 x[33,8] +1 x[33,9]  = 1
 auto_c_000000034: +1 x[34,0] +1 x[34,1] +1 x[34,2] +1 x[34,3] +1 x[34,4] +1 x[34,5] +1 x[34,6] +1 x[34,7] +1 x[34,8] +1 x[34,9]  = 1
 auto_c_000000035: +1 x[35,0] +1 x[35,1] +1 x[35,2] +1 x[35,3] +1 x[35,4] +1 x[35,5] +1 x[35,6] +1 x[35,7] +1 x[35,8] +1 x[35,9]  = 1
 auto_c_000000036: +1 x[36,0] +1 x[36,1] +1 x[36,2] +1 x[36,3] +1 x[36,4] +1 x[36,5] +1 x[36,6] +1 x[36,7] +1 x[36,8] +1 x[36,9]  = 1
 auto_c_000000037: +1 x[37,0] +1 x[37,1] +1 x[37,2] +1 x[37,3] +1 x[37,4] +1 x[37,5] +1 x[37,6] +1 x[37,7] +1 x[37,8] +1 x[37,9]  = 1
 auto_c_000000038: +1 x[38,0] +1 x[38,1] +1 x[38,2] +1 x[38,3] +1 x[38,4] +1 x[38,5] +1 x[38,6] +1 x[38,7] +1 x[38,8] +1 x[38,9]  = 1
 auto_c_000000039: +1 x[39,0] +1 x[39,1] +1 x[39,2] +1 x[39,3] +1 x[39,4] +1 x[39,5] +1 x[39,6] +1 x[39,7] +1 x[39,8] +1 x[39,9]  = 1
 auto_c_000000040: +1 x[40,0] +1 x[40,1] +1 x[40,2] +1 x[40,3] +1 x[40,4] +1 x[40,5] +1 x[40,6] +1 x[40,7] +1 x[40,8] +1 x[40,9]  = 1
 auto_c_000000041: +1 x[41,0] +1 x[41,1] +1 x[41,2] +1 x[41,3] +1 x[41,4] +1 x[41,5] +1 x[41,6] +1 x[41,7] +1 x[41,8] +1 x[41,9]  = 1
 auto_c_000000042: +1 x[42,0] +1 x[42,1] +1 x[42,2] +1 x[42,3] +1 x[42,4] +1 x[42,5] +1 x[42,6] +1 x[42,7] +1 x[42,8] +1 x[42,9]  = 1
 auto_c_000000043: +1 x[43,0] +1 x[43,1] +1 x[43,2] +1 x[43,3] +1 x[43,4] +1 x[43,5] +1 x[43,6] +1 x[43,7] +1 x[43,8] +1 x[43,9]  = 1
 auto_c_000000044: +1 x[44,0] +1 x[44,1] +1 x[44,2] +1 x[44,3] +1 x[44,4] +1 x[44,5] +1 x[44,6] +1 x[44,7] +1 x[44,8] +1 x[44,9]  = 1
 auto_c_000000045: +1 x[45,0] +1 x[45,1] +1 x[45,2] +1 x[45,3] +1 x[45,4] +1 x[45,5] +1 x[45,6] +1 x[45,7] +1 x[45,8] +1 x[45,9]  = 1
 auto_c_000000046: +1 x[46,0] +1 x[46,1] +1 x[46,2] +1 x[46,3] +1 x[46,4] +1 x[46,5] +1 x[46,6] +1 x[46,7] +1 x[46,8] +1 x[46,9]  = 1
 auto_c_000000047: +1 x[47,0] +1 x[47,1] +1 x[47,2] +1 x[47,3] +1 x[47,4] +1 x[47,5] +1 x[47,6] +1 x[47,7] +1 x[47,8] +1 x[47,9]  = 1
 auto_c_000000048: +1 x[48,0] +1 x[48,1] +1 x[48,2] +1 x[48,3] +1 x[48,4] +1 x[48,5] +1 x[48,6] +1 x[48,7] +1 x[48,8] +1 x[48,9]  = 1
 auto_c_000000049: +1 x[49,0] +1 x[49,1] +1 x[49,2] +1 x[49,3] +1 x[49,4] +1 x[49,5] +1 x[49,6] +1 x[49,7] +1 x[49,8] +1 x[49,9]  = 1
 auto_c_000000050: +49 x[0,0] +29 x[1,0] +23 x[2,0] +40 x[3,0] +18 x[4,0] +17 x[5,0] +48 x[6,0] +13 x[7,0] +15 x[8,0] +31 x[9,0] +16 x[10,0] +31 x[11,0] +14 x[12,0] +44 x[13,0] +23 x[14,0] +39 x[15,0] +33 x[16,0] +45 x[17,0] +40 x[18,0] +43 x[19,0] +38 x[20,0] +26 x[21,0] +47 x[22,0] +34 x[23,0] +24 x[24,0] +32 x[25,0] +28 x[26,0] +26 x[27,0] +20 x[28,0] +13 x[29,0] +27 x[30,0] +22 x[31,0] +14 x[32,0] +42 x[33,0] +31 x[34,0] +37 x[35,0] +45 x[36,0] +20 x[37,0] +38 x[38,0] +21 x[39,0] +25 x[40,0] +13 x[41,0] +19 x[42,0] +42 x[43,0] +10 x[44,0] +21 x[45,0] +37 x[46,0] +27 x[47,0] +17 x[48,0] +49 x[49,0] -200 y[0]  <= 0
 auto_c_000000051: +49 x[0,1] +29 x[1,1] +23 x[2,1] +40 x[3,1] +18 x[4,1] +17 x[5,1] +48 x[6,1] +13 x[7,1] +15 x[8,1] +31 x[9,1] +16 x[10,1] +31 x[11,1] +14 x[12,1] +44 x[13,1] +23 x[14,1] +39 x[15,1] +33 x[16,1] +45 x[17,1] +40 x[18,1] +43 x[19,1] +38 x[20,1] +26 x[21,1] +47 x[22,1] +34 x[23,1] +24 x[24,1] +32 x[25,1] +28 x[26,1] +26 x[27,1] +20 x[28,1] +13 x[29,1] +27 x[30,1] +22 x[31,1] +14 x[32,1] +42 x[33,1] +31 x[34,1] +37 x[35,1] +45 x[36,1] +20 x[37,1] +38 x[38,1] +21 x[39,1] +25 x[40,1] +13 x[41,1] +19 x[42,1] +42 x[43,1] +10 x[44,1] +21 x[45,1] +37 x[46,1] +27 x[47,1] +17 x[48,1] +49 x[49,1] -200 y[1]  <= 0
 auto_c_000000052: +49 x[0,2] +29 x[1,2] +23 x[2,2] +40 x[3,2] +18 x[4,2] +17 x[5,2] +48 x[6,2] +13 x[7,2] +15 x[8,2] +31 x[9,2] +16 x[10,2] +31 x[11,2] +14 x[12,2] +44 x[13,2] +23 x[14,2] +39 x[15,2] +33 x[16,2] +45 x[17,2] +40 x[18,2] +43 x[19,2] +38 x[20,2] +26 x[21,2] +47 x[22,2] +34 x[23,2] +24 x[24,2] +32 x[25,2] +28 x[26,2] +26 x[27,2] +20 x[28,2] +13 x[29,2] +27 x[30,2] +22 x[31,2] +14 x[32,2] +42 x[33,2] +31 x[34,2] +37 x[35,2] +45 x[36,2] +20 x[37,2] +38 x[38,2] +21 x[39,2] +25 x[40,2] +13 x[41,2] +19 x[42,2] +42 x[43,2] +10 x[44,2] +21 x[45,2] +37 x[46,2] +27 x[47,2] +17 x[48,2] +49 x[49,2] -200 y[2]  <= 0
 auto_c_000000053: +49 x[0,3] +29 x[1,3] +23 x[2,3] +40 x[3,3] +18 x[4,3] +17 x[5,3] +48 x[6,3] +13 x[7,3] +15 x[8,3] +31 x[9,3] +16 x[10,3] +31 x[11,3] +14 x[12,3] +44 x[13,3] +23 x[14,3] +39 x[15,3] +33 x[16,3] +45 x[17,3] +40 x[18,3] +43 x[19,3] +38 x[20,3] +26 x[21,3] +47 x[22,3] +34 x[23,3] +24 x[24,3] +32 x[25,3] +28 x[26,3] +26 x[27,3] +20 x[28,3] +13 x[29,3] +27 x[30,3] +22 x[31,3] +14 x[32,3] +42 x[33,3] +31 x[34,3] +37 x[35,3] +45 x[36,3] +20 x[37,3] +38 x[38,3] +21 x[39,3] +25 x[40,3] +13 x[41,3] +19 x[42,3] +42 x[43,3] +10 x[44,3] +21 x[45,3] +37 x[46,3] +27 x[47,3] +17 x[48,3] +49 x[49,3] -200 y[3]  <= 0
 auto_c_000000054: +49 x[0,4] +29 x[1,4] +23 x[2,4] +40 x[3,4] +18 x[4,4] +17 x[5,4] +48 x[6,4] +13 x[7,4] +15 x[8,4] +31 x[9,4] +16 x[10,4] +31 x[11,4] +14 x[12,4] +44 x[13,4] +23 x[14,4] +39 x[15,4] +33 x[16,4] +45 x[17,4] +40 x[18,4] +43 x[19,4] +38 x[20,4] +26 x[21,4] +47 x[22,4] +34 x[23,4] +24 x[24,4] +32 x[25,4] +28 x[26,4] +26 x[27,4] +20 x[28,4] +13 x[29,4] +27 x[30,4] +22 x[31,4] +14 x[32,4] +42 x[33,4] +31 x[34,4] +37 x[35,4] +45 x[36,4] +20 x[37,4] +38 x[38,4] +21 x[39,4] +25 x[40,4] +13 x[41,4] +19 x[42,4] +42 x[43,4] +10 x[44,4] +21 x[45,4] +37 x[46,4] +27 x[47,4] +17 x[48,4] +49 x[49,4] -200 y[4]  <= 0
 auto_c_000000055: +49 x[0,5] +29 x[1,5] +23 x[2,5] +40 x[3,5] +18 x[4,5] +17 x[5,5] +48 x[6,5] +13 x[7,5] +15 x[8,5] +31 x[9,5] +16 x[10,5] +31 x[11,5] +14 x[12,5] +44 x[13,5] +23 x[14,5] +39 x[15,5] +33 x[16,5] +45 x[17,5] +40 x[18,5] +43 x[19,5] +38 x[20,5] +26 x[21,5] +47 x[22,5] +34 x[23,5] +24 x[24,5] +32 x[25,5] +28 x[26,5] +26 x[27,5] +20 x[28,5] +13 x[29,5] +27 x[30,5] +22 x[31,5] +14 x[32,5] +42 x[33,5] +31 x[34,5] +37 x[35,5] +45 x[36,5] +20 x[37,5] +38 x[38,5] +21 x[39,5] +25 x[40,5] +13 x[41,5] +19 x[42,5] +42 x[43,5] +10 x[44,5] +21 x[45,5] +37 x[46,5] +27 x[47,5] +17 x[48,5] +49 x[49,5] -200 y[5]  <= 0
 auto_c_000000056: +49 x[0,6] +29 x[1,6] +23 x[2,6] +40 x[3,6] +18 x[4,6] +17 x[5,6] +48 x[6,6] +13 x[7,6] +15 x[8,6] +31 x[9,6] +16 x[10,6] +31 x[11,6] +14 x[12,6] +44 x[13,6] +23 x[14,6] +39 x[15,6] +33 x[16,6] +45 x[17,6] +40 x[18,6] +43 x[19,6] +38 x[20,6] +26 x[21,6] +47 x[22,6] +34 x[23,6] +24 x[24,6] +32 x[25,6] +28 x[26,6] +26 x[27,6] +20 x[28,6] +13 x[29,6] +27 x[30,6] +22 x[31,6] +14 x[32,6] +42 x[33,6] +31 x[34,6] +37 x[35,6] +45 x[36,6] +20 x[37,6] +38 x[38,6] +21 x[39,6] +25 x[40,6] +13 x[41,6] +19 x[42,6] +42 x[43,6] +10 x[44,6] +21 x[45,6] +37 x[46,6] +27 x[47,6] +17 x[48,6] +49 x[49,6] -200 y[6]  <= 0
 auto_c_000000057: +49 x[0,7] +29 x[1,7] +23 x[2,7] +40 x[3,7] +18 x[4,7] +17 x[5,7] +48 x[6,7] +13 x[7,7] +15 x[8,7] +31 x[9,7] +16 x[10,7] +31 x[11,7] +14 x[12,7] +44 x[13,7] +23 x[14,7] +39 x[15,7] +33 x[16,7] +45 x[17,7] +40 x[18,7] +43 x[19,7] +38 x[20,7] +26 x[21,7] +47 x[22,7] +34 x[23,7] +24 x[24,7] +32 x[25,7] +28 x[26,7] +26 x[27,7] +20 x[28,7] +13 x[29,7] +27 x[30,7] +22 x[31,7] +14 x[32,7] +42 x[33,7] +31 x[34,7] +37 x[35,7] +45 x[36,7] +20 x[37,7] +38 x[38,7] +21 x[39,7] +25 x[40,7] +13 x[41,7] +19 x[42,7] +42 x[43,7] +10 x[44,7] +21 x[45,7] +37 x[46,7] +27 x[47,7] +17 x[48,7] +49 x[49,7] -200 y[7]  <= 0
 auto_c_000000058: +49 x[0,8] +29 x[1,8] +23 x[2,8] +40 x[3,8] +18 x[4,8] +17 x[5,8] +48 x[6,8] +13 x[7,8] +15 x[8,8] +31 x[9,8] +16 x[10,8] +31 x[11,8] +14 x[12,8] +44 x[13,8] +23 x[14,8] +39 x[15,8] +33 x[16,8] +45 x[17,8] +40 x[18,8] +43 x[19,8] +38 x[20,8] +26 x[21,8] +47 x[22,8] +34 x[23,8] +24 x[24,8] +32 x[25,8] +28 x[26,8] +26 x[27,8] +20 x[28,8] +13 x[29,8] +27 x[30,8] +22 x[31,8] +14 x[32,8] +42 x[33,8] +31 x[34,8] +37 x[35,8] +45 x[36,8] +20 x[37,8] +38 x[38,8] +21 x[39,8] +25 x[40,8] +13 x[41,8] +19 x[42,8] +42 x[43,8] +10 x[44,8] +21 x[45,8] +37 x[46,8] +27 x[47,8] +17 x[48,8] +49 x[49,8] -200 y[8]  <= 0
 auto_c_000000059: +49 x[0,9] +29 x[1,9] +23 x[2,9] +40 x[3,9] +18 x[4,9] +17 x[5,9] +48 x[6,9] +13 x[7,9] +15 x[8,9] +31 x[9,9] +16 x[10,9] +31 x[11,9] +14 x[12,9] +44 x[13,9] +23 x[14,9] +39 x[15,9] +33 x[16,9] +45 x[17,9] +40 x[18,9] +43 x[19,9] +38 x[20,9] +26 x[21,9] +47 x[22,9] +34 x[23,9] +24 x[24,9] +32 x[25,9] +28 x[26,9] +26 x[27,9] +20 x[28,9] +13 x[29,9] +27 x[30,9] +22 x[31,9] +14 x[32,9] +42 x[33,9] +31 x[34,9] +37 x[35,9] +45 x[36,9] +20 x[37,9] +38 x[38,9] +21 x[39,9] +25 x[40,9] +13 x[41,9] +19 x[42,9] +42 x[43,9] +10 x[44,9] +21 x[45,9] +37 x[46,9] +27 x[47,9] +17 x[48,9] +49 x[49,9] -200 y[9]  <= 0
Bounds
 0 <= x[0,0] <= 1
 0 <= x[1,0] <= 1
 0 <= x[2,0] <= 1
 0 <= x[3,0] <= 1
 0 <= x[4,0] <= 1
 0 <= x[5,0] <= 1
 0 <= x[6,0] <= 1
 0 <= x[7,0] <= 1
 0 <= x[8,0] <= 1
 0 <= x[9,0] <= 1
 0 <= x[10,0] <= 1
 0 <= x[11,0] <= 1
 0 <= x[12,0] <= 1
 0 <= x[13,0] <= 1
 0 <= x[14,0] <= 1
 0 <= x[15,0] <= 1
 0 <= x[16,0] <= 1
 0 <= x[17,0] <= 1
 0 <= x[18,0] <= 1
 0 <= x[19,0] <= 1
 0 <= x[20,0] <= 1
 0 <= x[21,0] <= 1
 0 <= x[22,0] <= 1
 0 <= x[23,0] <= 1
 0 <= x[24,0] <= 1
 0 <= x[25,0] <= 1
 0 <= x[26,0] <= 1
 0 <= x[27,0] <= 1
 0 <= x[28,0] <= 1
 0 <= x[29,0] <= 1
 0 <= x[30,0] <= 1
 0 <= x[31,0] <= 1
 0 <= x[32,0] <= 1
 0 <= x[33,0] <= 1
 0 <= x[34,0] <= 1
 0 <= x[35,0] <= 1
 0 <= x[36,0] <= 1
 0 <= x[37,0] <= 1
 0 <= x[38,0] <= 1
 0 <= x[39,0] <= 1
 0 <= x[40,0] <= 1
 0 <= x[41,0] <= 1
 0 <= x[42,0] <= 1
 0 <= x[43,0] <= 1
 0 <= x[44,0] <= 1
 0 <= x[45,0] <= 1
 0 <= x[46,0] <= 1
 0 <= x[47,0] <= 1
 0 <= x[48,0] <= 1
 0 <= x[49,0] <= 1
 0 <= x[0,1] <= 1
 0 <= x[1,1] <= 1
 0 <= x[2,1] <= 1
 0 <= x[3,1] <= 1
 0 <= x[4,1] <= 1
 0 <= x[5,1] <= 1
 0 <= x[6,1] <= 1
 0 <= x[7,1] <= 1
 0 <= x[8,1] <= 1
 0 <= x[9,1] <= 1
 0 <= x[10,1] <= 1
 0 <= x[11,1] <= 1
 0 <= x[12,1] <= 1
 0 <= x[13,1] <= 1
 0 <= x[14,1] <= 1
 0 <= x[15,1] <= 1
 0 <= x[16,1] <= 1
 0 <= x[17,1] <= 1
 0 <= x[18,1] <= 1
 0 <= x[19,1] <= 1
 0 <= x[20,1] <= 1
 0 <= x[21,1] <= 1
 0 <= x[22,1] <= 1
 0 <= x[23,1] <= 1
 0 <= x[24,1] <= 1
 0 <= x[25,1] <= 1
 0 <= x[26,1] <= 1
 0 <= x[27,1] <= 1
 0 <= x[28,1] <= 1
 0 <= x[29,1] <= 1
 0 <= x[30,1] <= 1
 0 <= x[31,1] <= 1
 0 <= x[32,1] <= 1
 0 <= x[33,1] <= 1
 0 <= x[34,1] <= 1
 0 <= x[35,1] <= 1
 0 <= x[36,1] <= 1
 0 <= x[37,1] <= 1
 0 <= x[38,1] <= 1
 0 <= x[39,1] <= 1
 0 <= x[40,1] <= 1
 0 <= x[41,1] <= 1
 0 <= x[42,1] <= 1
 0 <= x[43,1] <= 1
 0 <= x[44,1] <= 1
 0 <= x[45,1] <= 1
 0 <= x[46,1] <= 1
 0 <= x[47,1] <= 1
 0 <= x[48,1] <= 1
 0 <= x[49,1] <= 1
 0 <= x[0,2] <= 1
 0 <= x[1,2] <= 1
 0 <= x[2,2] <= 1
 0 <= x[3,2] <= 1
 0 <= x[4,2] <= 1
 0 <= x[5,2] <= 1
 0 <= x[6,2] <= 1
 0 <= x[7,2] <= 1
 0 <= x[8,2] <= 1
 0 <= x[9,2] <= 1
 0 <= x[10,2] <= 1
 0 <= x[11,2] <= 1
 0 <= x[12,2] <= 1
 0 <= x[13,2] <= 1
 0 <= x[14,2] <= 1
 0 <= x[15,2] <= 1
 0 <= x[16,2] <= 1
 0 <= x[17,2] <= 1
 0 <= x[18,2] <= 1
 0 <= x[19,2] <= 1
 0 <= x[20,2] <= 1
 0 <= x[21,2] <= 1
 0 <= x[22,2] <= 1
 0 <= x[23,2] <= 1
 0 <= x[24,2] <= 1
 0 <= x[25,2] <= 1
 0 <= x[26,2] <= 1
 0 <= x[27,2] <= 1
 0 <= x[28,2] <= 1
 0 <= x[29,2] <= 1
 0 <= x[30,2] <= 1
 0 <= x[31,2] <= 1
 0 <= x[32,2] <= 1
 0 <= x[33,2] <= 1
 0 <= x[34,2] <= 1
 0 <= x[35,2] <= 1
 0 <= x[36,2] <= 1
 0 <= x[37,2] <= 1
 0 <= x[38,2] <= 1
 0 <= x[39,2] <= 1
 0 <= x[40,2] <= 1
 0 <= x[41,2] <= 1
 0 <= x[42,2] <= 1
 0 <= x[43,2] <= 1
 0 <= x[44,2] <= 1
 0 <= x[45,2] <= 1
 0 <= x[46,2] <= 1
 0 <= x[47,2] <= 1
 0 <= x[48,2] <= 1
 0 <= x[49,2] <= 1
 0 <= x[0,3] <= 1
 0 <= x[1,3] <= 1
 0 <= x[2,3] <= 1
 0 <= x[3,3] <= 1
 0 <= x[4,3] <= 1
 0 <= x[5,3] <= 1
 0 <= x[6,3] <= 1
 0 <= x[7,3] <= 1
 0 <= x[8,3] <= 1
 0 <= x[9,3] <= 1
 0 <= x[10,3] <= 1
 0 <= x[11,3] <= 1
 0 <= x[12,3] <= 1
 0 <= x[13,3] <= 1
 0 <= x[14,3] <= 1
 0 <= x[15,3] <= 1
 0 <= x[16,3] <= 1
 0 <= x[17,3] <= 1
 0 <= x[18,3] <= 1
 0 <= x[19,3] <= 1
 0 <= x[20,3] <= 1
 0 <= x[21,3] <= 1
 0 <= x[22,3] <= 1
 0 <= x[23,3] <= 1
 0 <= x[24,3] <= 1
 0 <= x[25,3] <= 1
 0 <= x[26,3] <= 1
 0 <= x[27,3] <= 1
 0 <= x[28,3] <= 1
 0 <= x[29,3] <= 1
 0 <= x[30,3] <= 1
 0 <= x[31,3] <= 1
 0 <= x[32,3] <= 1
 0 <= x[33,3] <= 1
 0 <= x[34,3] <= 1
 0 <= x[35,3] <= 1
 0 <= x[36,3] <= 1
 0 <= x[37,3] <= 1
 0 <= x[38,3] <= 1
 0 <= x[39,3] <= 1
 0 <= x[40,3] <= 1
 0 <= x[41,3] <= 1
 0 <= x[42,3] <= 1
 0 <= x[43,3] <= 1
 0 <= x[44,3] <= 1
 0 <= x[45,3] <= 1
 0 <= x[46,3] <= 1
 0 <= x[47,3] <= 1
 0 <= x[48,3] <= 1
 0 <= x[49,3] <= 1
 0 <= x[0,4] <= 1
 0 <= x[1,4] <= 1
 0 <= x[2,4] <= 1
 0 <= x[3,4] <= 1
 0 <= x[4,4] <= 1
 0 <= x[5,4] <= 1
 0 <= x[6,4] <= 1
 0 <= x[7,4] <= 1
 0 <= x[8,4] <= 1
 0 <= x[9,4] <= 1
 0 <= x[10,4] <= 1
 0 <= x[11,4] <= 1
 0 <= x[12,4] <= 1
 0 <= x[13,4] <= 1
 0 <= x[14,4] <= 1
 0 <= x[15,4] <= 1
 0 <= x[16,4] <= 1
 0 <= x[17,4] <= 1
 0 <= x[18,4] <= 1
 0 <= x[19,4] <= 1
 0 <= x[20,4] <= 1
 0 <= x[21,4] <= 1
 0 <= x[22,4] <= 1
 0 <= x[23,4] <= 1
 0 <= x[24,4] <= 1
 0 <= x[25,4] <= 1
 0 <= x[26,4] <= 1
 0 <= x[27,4] <= 1
 0 <= x[28,4] <= 1
 0 <= x[29,4] <= 1
 0 <= x[30,4] <= 1
 0 <= x[31,4] <= 1
 0 <= x[32,4] <= 1
 0 <= x[33,4] <= 1
 0 <= x[34,4] <= 1
 0 <= x[35,4] <= 1
 0 <= x[36,4] <= 1
 0 <= x[37,4] <= 1
 0 <= x[38,4] <= 1
 0 <= x[39,4] <= 1
 0 <= x[40,4] <= 1
 0 <= x[41,4] <= 1
 0 <= x[42,4] <= 1
 0 <= x[43,4] <= 1
 0 <= x[44,4] <= 1
 0 <= x[45,4] <= 1
 0 <= x[46,4] <= 1
 0 <= x[47,4] <= 1
 0 <= x[48,4] <= 1
 0 <= x[49,4] <= 1
 0 <= x[0,5] <= 1
 0 <= x[1,5] <= 1
 0 <= x[2,5] <= 1
 0 <= x[3,5] <= 1
 0 <= x[4,5] <= 1
 0 <= x[5,5] <= 1
 0 <= x[6,5] <= 1
 0 <= x[7,5] <= 1
 0 <= x[8,5] <= 1
 0 <= x[9,5] <= 1
 0 <= x[10,5] <= 1
 0 <= x[11,5] <= 1
 0 <= x[12,5] <= 1
 0 <= x[13,5] <= 1
 0 <= x[14,5] <= 1
 0 <= x[15,5] <= 1
 0 <= x[16,5] <= 1
 0 <= x[17,5] <= 1
 0 <= x[18,5] <= 1
 0 <= x[19,5] <= 1
 0 <= x[20,5] <= 1
 0 <= x[21,5] <= 1
 0 <= x[22,5] <= 1
 0 <= x[23,5] <= 1
 0 <= x[24,5] <= 1
 0 <= x[25,5] <= 1
 0 <= x[26,5] <= 1
 0 <= x[27,5] <= 1
 0 <= x[28,5] <= 1
 0 <= x[29,5] <= 1
 0 <= x[30,5] <= 1
 0 <= x[31,5] <= 1
 0 <= x[32,5] <= 1
 0 <= x[33,5] <= 1
 0 <= x[34,5] <= 1
 0 <= x[35,5] <= 1
 0 <= x[36,5] <= 1
 0 <= x[37,5] <= 1
 0 <= x[38,5] <= 1
 0 <= x[39,5] <= 1
 0 <= x[40,5] <= 1
 0 <= x[41,5] <= 1
 0 <= x[42,5] <= 1
 0 <= x[43,5] <= 1
 0 <= x[44,5] <= 1
 0 <= x[45,5] <= 1
 0 <= x[46,5] <= 1
 0 <= x[47,5] <= 1
 0 <= x[48,5] <= 1
 0 <= x[49,5] <= 1
 0 <= x[0,6] <= 1
 0 <= x[1,6] <= 1
 0 <= x[2,6] <= 1
 0 <= x[3,6] <= 1
 0 <= x[4,6] <= 1
 0 <= x[5,6] <= 1
 0 <= x[6,6] <= 1
 0 <= x[7,6] <= 1
 0 <= x[8,6] <= 1
 0 <= x[9,6] <= 1
 0 <= x[10,6] <= 1
 0 <= x[11,6] <= 1
 0 <= x[12,6] <= 1
 0 <= x[13,6] <= 1
 0 <= x[14,6] <= 1
 0 <= x[15,6] <= 1
 0 <= x[16,6] <= 1
 0 <= x[17,6] <= 1
 0 <= x[18,6] <= 1
 0 <= x[19,6] <= 1
 0 <= x[20,6] <= 1
 0 <= x[21,6] <= 1
 0 <= x[22,6] <= 1
 0 <= x[23,6] <= 1
 0 <= x[24,6] <= 1
 0 <= x[25,6] <= 1
 0 <= x[26,6] <= 1
 0 <= x[27,6] <= 1
 0 <= x[28,6] <= 1
 0 <= x[29,6] <= 1
 0 <= x[30,6] <= 1
 0 <= x[31,6] <= 1
 0 <= x[32,6] <= 1
 0 <= x[33,6] <= 1
 0 <= x[34,6] <= 1
 0 <= x[35,6] <= 1
 0 <= x[36,6] <= 1
 0 <= x[37,6] <= 1
 0 <= x[38,6] <= 1
 0 <= x[39,6] <= 1
 0 <= x[40,6] <= 1
 0 <= x[41,6] <= 1
 0 <= x[42,6] <= 1
 0 <= x[43,6] <= 1
 0 <= x[44,6] <= 1
 0 <= x[45,6] <= 1
 0 <= x[46,6] <= 1
 0 <= x[47,6] <= 1
 0 <= x[48,6] <= 1
 0 <= x[49,6] <= 1
 0 <= x[0,7] <= 1
 0 <= x[1,7] <= 1
 0 <= x[2,7] <= 1
 0 <= x[3,7] <= 1
 0 <= x[4,7] <= 1
 0 <= x[5,7] <= 1
 0 <= x[6,7] <= 1
 0 <= x[7,7] <= 1
 0 <= x[8,7] <= 1
 0 <= x[9,7] <= 1
 0 <= x[10,7] <= 1
 0 <= x[11,7] <= 1
 0 <= x[12,7] <= 1
 0 <= x[13,7] <= 1
 0 <= x[14,7] <= 1
 0 <= x[15,7] <= 1
 0 <= x[16,7] <= 1
 0 <= x[17,7] <= 1
 0 <= x[18,7] <= 1
 0 <= x[19,7] <= 1
 0 <= x[20,7] <= 1
 0 <= x[21,7] <= 1
 0 <= x[22,7] <= 1
 0 <= x[23,7] <= 1
 0 <= x[24,7] <= 1
 0 <= x[25,7] <= 1
 0 <= x[26,7] <= 1
 0 <= x[27,7] <= 1
 0 <= x[28,7] <= 1
 0 <= x[29,7] <= 1
 0 <= x[30,7] <= 1
 0 <= x[31,7] <= 1
 0 <= x[32,7] <= 1
 0 <= x[33,7] <= 1
 0 <= x[34,7] <= 1
 0 <= x[35,7] <= 1
 0 <= x[36,7] <= 1
 0 <= x[37,7] <= 1
 0 <= x[38,7] <= 1
 0 <= x[39,7] <= 1
 0 <= x[40,7] <= 1
 0 <= x[41,7] <= 1
 0 <= x[42,7] <= 1
 0 <= x[43,7] <= 1
 0 <= x[44,7] <= 1
 0 <= x[45,7] <= 1
 0 <= x[46,7] <= 1
 0 <= x[47,7] <= 1
 0 <= x[48,7] <= 1
 0 <= x[49,7] <= 1
 0 <= x[0,8] <= 1
 0 <= x[1,8] <= 1
 0 <= x[2,8] <= 1
 0 <= x[3,8] <= 1
 0 <= x[4,8] <= 1
 0 <= x[5,8] <= 1
 0 <= x[6,8] <= 1
 0 <= x[7,8] <= 1
 0 <= x[8,8] <= 1
 0 <= x[9,8] <= 1
 0 <= x[10,8] <= 1
 0 <= x[11,8] <= 1
 0 <= x[12,8] <= 1
 0 <= x[13,8] <= 1
 0 <= x[14,8] <= 1
 0 <= x[15,8] <= 1
 0 <= x[16,8] <= 1
 0 <= x[17,8] <= 1
 0 <= x[18,8] <= 1
 0 <= x[19,8] <= 1
 0 <= x[20,8] <= 1
 0 <= x[21,8] <= 1
 0 <= x[22,8] <= 1
 0 <= x[23,8] <= 1
 0 <= x[24,8] <= 1
 0 <= x[25,8] <= 1
 0 <= x[26,8] <= 1
 0 <= x[27,8] <= 1
 0 <= x[28,8] <= 1
 0 <= x[29,8] <= 1
 0 <= x[30,8] <= 1
 0 <= x[31,8] <= 1
 0 <= x[32,8] <= 1
 0 <= x[33,8] <= 1
 0 <= x[34,8] <= 1
 0 <= x[35,8] <= 1
 0 <= x[36,8] <= 1
 0 <= x[37,8] <= 1
 0 <= x[38,8] <= 1
 0 <= x[39,8] <= 1
 0 <= x[40,8] <= 1
 0 <= x[41,8] <= 1
 0 <= x[42,8] <= 1
 0 <= x[43,8] <= 1
 0 <= x[44,8] <= 1
 0 <= x[45,8] <= 1
 0 <= x[46,8] <= 1
 0 <= x[47,8] <= 1
 0 <= x[48,8] <= 1
 0 <= x[49,8] <= 1
 0 <= x[0,9] <= 1
 0 <= x[1,9] <= 1
 0 <= x[2,9] <= 1
 0 <= x[3,9] <= 1
 0 <= x[4,9] <= 1
 0 <= x[5,9] <= 1
 0 <= x[6,9] <= 1
 0 <= x[7,9] <= 1
 0 <= x[8,9] <= 1
 0 <= x[9,9] <= 1
 0 <= x[10,9] <= 1
 0 <= x[11,9] <= 1
 0 <= x[12,9] <= 1
 0 <= x[13,9] <= 1
 0 <= x[14,9] <= 1
 0 <= x[15,9] <= 1
 0 <= x[16,9] <= 1
 0 <= x[17,9] <= 1
 0 <= x[18,9] <= 1
 0 <= x[19,9] <= 1
 0 <= x[20,9] <= 1
 0 <= x[21,9] <= 1
 0 <= x[22,9] <= 1
 0 <= x[23,9] <= 1
 0 <= x[24,9] <= 1
 0 <= x[25,9] <= 1
 0 <= x[26,9] <= 1
 0 <= x[27,9] <= 1
 0 <= x[28,9] <= 1
 0 <= x[29,9] <= 1
 0 <= x[30,9] <= 1
 0 <= x[31,9] <= 1
 0 <= x[32,9] <= 1
 0 <= x[33,9] <= 1
 0 <= x[34,9] <= 1
 0 <= x[35,9] <= 1
 0 <= x[36,9] <= 1
 0 <= x[37,9] <= 1
 0 <= x[38,9] <= 1
 0 <= x[39,9] <= 1
 0 <= x[40,9] <= 1
 0 <= x[41,9] <= 1
 0 <= x[42,9] <= 1
 0 <= x[43,9] <= 1
 0 <= x[44,9] <= 1
 0 <= x[45,9] <= 1
 0 <= x[46,9] <= 1
 0 <= x[47,9] <= 1
 0 <= x[48,9] <= 1
 0 <= x[49,9] <= 1
 0 <= y[0] <= 1
 0 <= y[1] <= 1
 0 <= y[2] <= 1
 0 <= y[3] <= 1
 0 <= y[4] <= 1
 0 <= y[5] <= 1
 0 <= y[6] <= 1
 0 <= y[7] <= 1
 0 <= y[8] <= 1
 0 <= y[9] <= 1
Binaries
 x[0,0]
 x[1,0]
 x[2,0]
 x[3,0]
 x[4,0]
 x[5,0]
 x[6,0]
 x[7,0]
 x[8,0]
 x[9,0]
 x[10,0]
 x[11,0]
 x[12,0]
 x[13,0]
 x[14,0]
 x[15,0]
 x[16,0]
 x[17,0]
 x[18,0]
 x[19,0]
 x[20,0]
 x[21,0]
 x[22,0]
 x[23,0]
 x[24,0]
 x[25,0]
 x[26,0]
 x[27,0]
 x[28,0]
 x[29,0]
 x[30,0]
 x[31,0]
 x[32,0]
 x[33,0]
 x[34,0]
 x[35,0]
 x[36,0]
 x[37,0]
 x[38,0]
 x[39,0]
 x[40,0]
 x[41,0]
 x[42,0]
 x[43,0]
 x[44,0]
 x[45,0]
 x[46,0]
 x[47,0]
 x[48,0]
 x[49,0]
 x[0,1]
 x[1,1]
 x[2,1]
 x[3,1]
 x[4,1]
 x[5,1]
 x[6,1]
 x[7,1]
 x[8,1]
 x[9,1]
 x[10,1]
 x[11,1]
 x[12,1]
 x[13,1]
 x[14,1]
 x[15,1]
 x[16,1]
 x[17,1]
 x[18,1]
 x[19,1]
 x[20,1]
 x[21,1]
 x[22,1]
 x[23,1]
 x[24,1]
 x[25,1]
 x[26,1]
 x[27,1]
 x[28,1]
 x[29,1]
 x[30,1]
 x[31,1]
 x[32,1]
 x[33,1]
 x[34,1]
 x[35,1]
 x[36,1]
 x[37,1]
 x[38,1]
 x[39,1]
 x[40,1]
 x[41,1]
 x[42,1]
 x[43,1]
 x[44,1]
 x[45,1]
 x[46,1]
 x[47,1]
 x[48,1]
 x[49,1]
 x[0,2]
 x[1,2]
 x[2,2]
 x[3,2]
 x[4,2]
 x[5,2]
 x[6,2]
 x[7,2]
 x[8,2]
 x[9,2]
 x[10,2]
 x[11,2]
 x[12,2]
 x[13,2]
 x[14,2]
 x[15,2]
 x[16,2]
 x[17,2]
 x[18,2]
 x[19,2]
 x[20,2]
 x[21,2]
 x[22,2]
 x[23,2]
 x[24,2]
 x[25,2]
 x[26,2]
 x[27,2]
 x[28,2]
 x[29,2]
 x[30,2]
 x[31,2]
 x[32,2]
 x[33,2]
 x[34,2]
 x[35,2]
 x[36,2]
 x[37,2]
 x[38,2]
 x[39,2]
 x[40,2]
 x[41,2]
 x[42,2]
 x[43,2]
 x[44,2]
 x[45,2]
 x[46,2]
 x[47,2]
 x[48,2]
 x[49,2]
 x[0,3]
 x[1,3]
 x[2,3]
 x[3,3]
 x[4,3]
 x[5,3]
 x[6,3]
 x[7,3]
 x[8,3]
 x[9,3]
 x[10,3]
 x[11,3]
 x[12,3]
 x[13,3]
 x[14,3]
 x[15,3]
 x[16,3]
 x[17,3]
 x[18,3]
 x[19,3]
 x[20,3]
 x[21,3]
 x[22,3]
 x[23,3]
 x[24,3]
 x[25,3]
 x[26,3]
 x[27,3]
 x[28,3]
 x[29,3]
 x[30,3]
 x[31,3]
 x[32,3]
 x[33,3]
 x[34,3]
 x[35,3]
 x[36,3]
 x[37,3]
 x[38,3]
 x[39,3]
 x[40,3]
 x[41,3]
 x[42,3]
 x[43,3]
 x[44,3]
 x[45,3]
 x[46,3]
 x[47,3]
 x[48,3]
 x[49,3]
 x[0,4]
 x[1,4]
 x[2,4]
 x[3,4]
 x[4,4]
 x[5,4]
 x[6,4]
 x[7,4]
 x[8,4]
 x[9,4]
 x[10,4]
 x[11,4]
 x[12,4]
 x[13,4]
 x[14,4]
 x[15,4]
 x[16,4]
 x[17,4]
 x[18,4]
 x[19,4]
 x[20,4]
 x[21,4]
 x[22,4]
 x[23,4]
 x[24,4]
 x[25,4]
 x[26,4]
 x[27,4]
 x[28,4]
 x[29,4]
 x[30,4]
 x[31,4]
 x[32,4]
 x[33,4]
 x[34,4]
 x[35,4]
 x[36,4]
 x[37,4]
 x[38,4]
 x[39,4]
 x[40,4]
 x[41,4]
 x[42,4]
 x[43,4]
 x[44,4]
 x[45,4]
 x[46,4]
 x[47,4]
 x[48,4]
 x[49,4]
 x[0,5]
 x[1,5]
 x[2,5]
 x[3,5]
 x[4,5]
 x[5,5]
 x[6,5]
 x[7,5]
 x[8,5]
 x[9,5]
 x[10,5]
 x[11,5]
 x[12,5]
 x[13,5]
 x[14,5]
 x[15,5]
 x[16,5]
 x[17,5]
 x[18,5]
 x[19,5]
 x[20,5]
 x[21,5]
 x[22,5]
 x[23,5]
 x[24,5]
 x[25,5]
 x[26,5]
 x[27,5]
 x[28,5]
 x[29,5]
 x[30,5]
 x[31,5]
 x[32,5]
 x[33,5]
 x[34,5]
 x[35,5]
 x[36,5]
 x[37,5]
 x[38,5]
 x[39,5]
 x[40,5]
 x[41,5]
 x[42,5]
 x[43,5]
 x[44,5]
 x[45,5]
 x[46,5]
 x[47,5]
 x[48,5]
 x[49,5]
 x[0,6]
 x[1,6]
 x[2,6]
 x[3,6]
 x[4,6]
 x[5,6]
 x[6,6]
 x[7,6]
 x[8,6]
 x[9,6]
 x[10,6]
 x[11,6]
 x[12,6]
 x[13,6]
 x[14,6]
 x[15,6]
 x[16,6]
 x[17,6]
 x[18,6]
 x[19,6]
 x[20,6]
 x[21,6]
 x[22,6]
 x[23,6]
 x[24,6]
 x[25,6]
 x[26,6]
 x[27,6]
 x[28,6]
 x[29,6]
 x[30,6]
 x[31,6]
 x[32,6]
 x[33,6]
 x[34,6]
 x[35,6]
 x[36,6]
 x[37,6]
 x[38,6]
 x[39,6]
 x[40,6]
 x[41,6]
 x[42,6]
 x[43,6]
 x[44,6]
 x[45,6]
 x[46,6]
 x[47,6]
 x[48,6]
 x[49,6]
 x[0,7]
 x[1,7]
 x[2,7]
 x[3,7]
 x[4,7]
 x[5,7]
 x[6,7]
 x[7,7]
 x[8,7]
 x[9,7]
 x[10,7]
 x[11,7]
 x[12,7]
 x[13,7]
 x[14,7]
 x[15,7]
 x[16,7]
 x[17,7]
 x[18,7]
 x[19,7]
 x[20,7]
 x[21,7]
 x[22,7]
 x[23,7]
 x[24,7]
 x[25,7]
 x[26,7]
 x[27,7]
 x[28,7]
 x[29,7]
 x[30,7]
 x[31,7]
 x[32,7]
 x[33,7]
 x[34,7]
 x[35,7]
 x[36,7]
 x[37,7]
 x[38,7]
 x[39,7]
 x[40,7]
 x[41,7]
 x[42,7]
 x[43,7]
 x[44,7]
 x[45,7]
 x[46,7]
 x[47,7]
 x[48,7]
 x[49,7]
 x[0,8]
 x[1,8]
 x[2,8]
 x[3,8]
 x[4,8]
 x[5,8]
 x[6,8]
 x[7,8]
 x[8,8]
 x[9,8]
 x[10,8]
 x[11,8]
 x[12,8]
 x[13,8]
 x[14,8]
 x[15,8]
 x[16,8]
 x[17,8]
 x[18,8]
 x[19,8]
 x[20,8]
 x[21,8]
 x[22,8]
 x[23,8]
 x[24,8]
 x[25,8]
 x[26,8]
 x[27,8]
 x[28,8]
 x[29,8]
 x[30,8]
 x[31,8]
 x[32,8]
 x[33,8]
 x[34,8]
 x[35,8]
 x[36,8]
 x[37,8]
 x[38,8]
 x[39,8]
 x[40,8]
 x[41,8]
 x[42,8]
 x[43,8]
 x[44,8]
 x[45,8]
 x[46,8]
 x[47,8]
 x[48,8]
 x[49,8]
 x[0,9]
 x[1,9]
 x[2,9]
 x[3,9]
 x[4,9]
 x[5,9]
 x[6,9]
 x[7,9]
 x[8,9]
 x[9,9]
 x[10,9]
 x[11,9]
 x[12,9]
 x[13,9]
 x[14,9]
 x[15,9]
 x[16,9]
 x[17,9]
 x[18,9]
 x[19,9]
 x[20,9]
 x[21,9]
 x[22,9]
 x[23,9]
 x[24,9]
 x[25,9]
 x[26,9]
 x[27,9]
 x[28,9]
 x[29,9]
 x[30,9]
 x[31,9]
 x[32,9]
 x[33,9]
 x[34,9]
 x[35,9]
 x[36,9]
 x[37,9]
 x[38,9]
 x[39,9]
 x[40,9]
 x[41,9]
 x[42,9]
 x[43,9]
 x[44,9]
 x[45,9]
 x[46,9]
 x[47,9]
 x[48,9]
 x[49,9]
 y[0]
 y[1]
 y[2]
 y[3]
 y[4]
 y[5]
 y[6]
 y[7]
 y[8]
 y[9]
End
